(set-logic QF_LRA)
(declare-fun X0 () Real )
(declare-fun Y0 () Real )
(declare-fun X1 () Real )
(declare-fun Y1 () Real )
(declare-fun X2 () Real )
(declare-fun Y2 () Real )
(declare-fun X3 () Real )
(declare-fun Y3 () Real )
(declare-fun X4 () Real )
(declare-fun Y4 () Real )
(declare-fun X5 () Real )
(declare-fun Y5 () Real )
(declare-fun X6 () Real )
(declare-fun Y6 () Real )
(declare-fun X7 () Real )
(declare-fun Y7 () Real )
(declare-fun X8 () Real )
(declare-fun Y8 () Real )
(declare-fun X9 () Real )
(declare-fun Y9 () Real )
(declare-fun X10 () Real )
(declare-fun Y10 () Real )
(declare-fun X11 () Real )
(declare-fun Y11 () Real )
(declare-fun Z () Real )
(assert ( and  
( or ( <= ( + X0 31 ) X1 )  ( <= ( + X1 53 ) X0 )  ( <= ( + Y0 38 ) Y1 )  ( <= ( + Y1 46 ) Y0 )  )
( or ( <= ( + X0 31 ) X2 )  ( <= ( + X2 56 ) X0 )  ( <= ( + Y0 38 ) Y2 )  ( <= ( + Y2 58 ) Y0 )  )
( or ( <= ( + X0 31 ) X3 )  ( <= ( + X3 1 ) X0 )  ( <= ( + Y0 38 ) Y3 )  ( <= ( + Y3 54 ) Y0 )  )
( or ( <= ( + X0 31 ) X4 )  ( <= ( + X4 84 ) X0 )  ( <= ( + Y0 38 ) Y4 )  ( <= ( + Y4 25 ) Y0 )  )
( or ( <= ( + X0 31 ) X5 )  ( <= ( + X5 2 ) X0 )  ( <= ( + Y0 38 ) Y5 )  ( <= ( + Y5 81 ) Y0 )  )
( or ( <= ( + X0 31 ) X6 )  ( <= ( + X6 29 ) X0 )  ( <= ( + Y0 38 ) Y6 )  ( <= ( + Y6 56 ) Y0 )  )
( or ( <= ( + X0 31 ) X7 )  ( <= ( + X7 27 ) X0 )  ( <= ( + Y0 38 ) Y7 )  ( <= ( + Y7 68 ) Y0 )  )
( or ( <= ( + X0 31 ) X8 )  ( <= ( + X8 34 ) X0 )  ( <= ( + Y0 38 ) Y8 )  ( <= ( + Y8 23 ) Y0 )  )
( or ( <= ( + X0 31 ) X9 )  ( <= ( + X9 14 ) X0 )  ( <= ( + Y0 38 ) Y9 )  ( <= ( + Y9 78 ) Y0 )  )
( or ( <= ( + X0 31 ) X10 )  ( <= ( + X10 54 ) X0 )  ( <= ( + Y0 38 ) Y10 )  ( <= ( + Y10 43 ) Y0 )  )
( or ( <= ( + X0 31 ) X11 )  ( <= ( + X11 45 ) X0 )  ( <= ( + Y0 38 ) Y11 )  ( <= ( + Y11 4 ) Y0 )  )
( or ( <= ( + X1 53 ) X2 )  ( <= ( + X2 56 ) X1 )  ( <= ( + Y1 46 ) Y2 )  ( <= ( + Y2 58 ) Y1 )  )
( or ( <= ( + X1 53 ) X3 )  ( <= ( + X3 1 ) X1 )  ( <= ( + Y1 46 ) Y3 )  ( <= ( + Y3 54 ) Y1 )  )
( or ( <= ( + X1 53 ) X4 )  ( <= ( + X4 84 ) X1 )  ( <= ( + Y1 46 ) Y4 )  ( <= ( + Y4 25 ) Y1 )  )
( or ( <= ( + X1 53 ) X5 )  ( <= ( + X5 2 ) X1 )  ( <= ( + Y1 46 ) Y5 )  ( <= ( + Y5 81 ) Y1 )  )
( or ( <= ( + X1 53 ) X6 )  ( <= ( + X6 29 ) X1 )  ( <= ( + Y1 46 ) Y6 )  ( <= ( + Y6 56 ) Y1 )  )
( or ( <= ( + X1 53 ) X7 )  ( <= ( + X7 27 ) X1 )  ( <= ( + Y1 46 ) Y7 )  ( <= ( + Y7 68 ) Y1 )  )
( or ( <= ( + X1 53 ) X8 )  ( <= ( + X8 34 ) X1 )  ( <= ( + Y1 46 ) Y8 )  ( <= ( + Y8 23 ) Y1 )  )
( or ( <= ( + X1 53 ) X9 )  ( <= ( + X9 14 ) X1 )  ( <= ( + Y1 46 ) Y9 )  ( <= ( + Y9 78 ) Y1 )  )
( or ( <= ( + X1 53 ) X10 )  ( <= ( + X10 54 ) X1 )  ( <= ( + Y1 46 ) Y10 )  ( <= ( + Y10 43 ) Y1 )  )
( or ( <= ( + X1 53 ) X11 )  ( <= ( + X11 45 ) X1 )  ( <= ( + Y1 46 ) Y11 )  ( <= ( + Y11 4 ) Y1 )  )
( or ( <= ( + X2 56 ) X3 )  ( <= ( + X3 1 ) X2 )  ( <= ( + Y2 58 ) Y3 )  ( <= ( + Y3 54 ) Y2 )  )
( or ( <= ( + X2 56 ) X4 )  ( <= ( + X4 84 ) X2 )  ( <= ( + Y2 58 ) Y4 )  ( <= ( + Y4 25 ) Y2 )  )
( or ( <= ( + X2 56 ) X5 )  ( <= ( + X5 2 ) X2 )  ( <= ( + Y2 58 ) Y5 )  ( <= ( + Y5 81 ) Y2 )  )
( or ( <= ( + X2 56 ) X6 )  ( <= ( + X6 29 ) X2 )  ( <= ( + Y2 58 ) Y6 )  ( <= ( + Y6 56 ) Y2 )  )
( or ( <= ( + X2 56 ) X7 )  ( <= ( + X7 27 ) X2 )  ( <= ( + Y2 58 ) Y7 )  ( <= ( + Y7 68 ) Y2 )  )
( or ( <= ( + X2 56 ) X8 )  ( <= ( + X8 34 ) X2 )  ( <= ( + Y2 58 ) Y8 )  ( <= ( + Y8 23 ) Y2 )  )
( or ( <= ( + X2 56 ) X9 )  ( <= ( + X9 14 ) X2 )  ( <= ( + Y2 58 ) Y9 )  ( <= ( + Y9 78 ) Y2 )  )
( or ( <= ( + X2 56 ) X10 )  ( <= ( + X10 54 ) X2 )  ( <= ( + Y2 58 ) Y10 )  ( <= ( + Y10 43 ) Y2 )  )
( or ( <= ( + X2 56 ) X11 )  ( <= ( + X11 45 ) X2 )  ( <= ( + Y2 58 ) Y11 )  ( <= ( + Y11 4 ) Y2 )  )
( or ( <= ( + X3 1 ) X4 )  ( <= ( + X4 84 ) X3 )  ( <= ( + Y3 54 ) Y4 )  ( <= ( + Y4 25 ) Y3 )  )
( or ( <= ( + X3 1 ) X5 )  ( <= ( + X5 2 ) X3 )  ( <= ( + Y3 54 ) Y5 )  ( <= ( + Y5 81 ) Y3 )  )
( or ( <= ( + X3 1 ) X6 )  ( <= ( + X6 29 ) X3 )  ( <= ( + Y3 54 ) Y6 )  ( <= ( + Y6 56 ) Y3 )  )
( or ( <= ( + X3 1 ) X7 )  ( <= ( + X7 27 ) X3 )  ( <= ( + Y3 54 ) Y7 )  ( <= ( + Y7 68 ) Y3 )  )
( or ( <= ( + X3 1 ) X8 )  ( <= ( + X8 34 ) X3 )  ( <= ( + Y3 54 ) Y8 )  ( <= ( + Y8 23 ) Y3 )  )
( or ( <= ( + X3 1 ) X9 )  ( <= ( + X9 14 ) X3 )  ( <= ( + Y3 54 ) Y9 )  ( <= ( + Y9 78 ) Y3 )  )
( or ( <= ( + X3 1 ) X10 )  ( <= ( + X10 54 ) X3 )  ( <= ( + Y3 54 ) Y10 )  ( <= ( + Y10 43 ) Y3 )  )
( or ( <= ( + X3 1 ) X11 )  ( <= ( + X11 45 ) X3 )  ( <= ( + Y3 54 ) Y11 )  ( <= ( + Y11 4 ) Y3 )  )
( or ( <= ( + X4 84 ) X5 )  ( <= ( + X5 2 ) X4 )  ( <= ( + Y4 25 ) Y5 )  ( <= ( + Y5 81 ) Y4 )  )
( or ( <= ( + X4 84 ) X6 )  ( <= ( + X6 29 ) X4 )  ( <= ( + Y4 25 ) Y6 )  ( <= ( + Y6 56 ) Y4 )  )
( or ( <= ( + X4 84 ) X7 )  ( <= ( + X7 27 ) X4 )  ( <= ( + Y4 25 ) Y7 )  ( <= ( + Y7 68 ) Y4 )  )
( or ( <= ( + X4 84 ) X8 )  ( <= ( + X8 34 ) X4 )  ( <= ( + Y4 25 ) Y8 )  ( <= ( + Y8 23 ) Y4 )  )
( or ( <= ( + X4 84 ) X9 )  ( <= ( + X9 14 ) X4 )  ( <= ( + Y4 25 ) Y9 )  ( <= ( + Y9 78 ) Y4 )  )
( or ( <= ( + X4 84 ) X10 )  ( <= ( + X10 54 ) X4 )  ( <= ( + Y4 25 ) Y10 )  ( <= ( + Y10 43 ) Y4 )  )
( or ( <= ( + X4 84 ) X11 )  ( <= ( + X11 45 ) X4 )  ( <= ( + Y4 25 ) Y11 )  ( <= ( + Y11 4 ) Y4 )  )
( or ( <= ( + X5 2 ) X6 )  ( <= ( + X6 29 ) X5 )  ( <= ( + Y5 81 ) Y6 )  ( <= ( + Y6 56 ) Y5 )  )
( or ( <= ( + X5 2 ) X7 )  ( <= ( + X7 27 ) X5 )  ( <= ( + Y5 81 ) Y7 )  ( <= ( + Y7 68 ) Y5 )  )
( or ( <= ( + X5 2 ) X8 )  ( <= ( + X8 34 ) X5 )  ( <= ( + Y5 81 ) Y8 )  ( <= ( + Y8 23 ) Y5 )  )
( or ( <= ( + X5 2 ) X9 )  ( <= ( + X9 14 ) X5 )  ( <= ( + Y5 81 ) Y9 )  ( <= ( + Y9 78 ) Y5 )  )
( or ( <= ( + X5 2 ) X10 )  ( <= ( + X10 54 ) X5 )  ( <= ( + Y5 81 ) Y10 )  ( <= ( + Y10 43 ) Y5 )  )
( or ( <= ( + X5 2 ) X11 )  ( <= ( + X11 45 ) X5 )  ( <= ( + Y5 81 ) Y11 )  ( <= ( + Y11 4 ) Y5 )  )
( or ( <= ( + X6 29 ) X7 )  ( <= ( + X7 27 ) X6 )  ( <= ( + Y6 56 ) Y7 )  ( <= ( + Y7 68 ) Y6 )  )
( or ( <= ( + X6 29 ) X8 )  ( <= ( + X8 34 ) X6 )  ( <= ( + Y6 56 ) Y8 )  ( <= ( + Y8 23 ) Y6 )  )
( or ( <= ( + X6 29 ) X9 )  ( <= ( + X9 14 ) X6 )  ( <= ( + Y6 56 ) Y9 )  ( <= ( + Y9 78 ) Y6 )  )
( or ( <= ( + X6 29 ) X10 )  ( <= ( + X10 54 ) X6 )  ( <= ( + Y6 56 ) Y10 )  ( <= ( + Y10 43 ) Y6 )  )
( or ( <= ( + X6 29 ) X11 )  ( <= ( + X11 45 ) X6 )  ( <= ( + Y6 56 ) Y11 )  ( <= ( + Y11 4 ) Y6 )  )
( or ( <= ( + X7 27 ) X8 )  ( <= ( + X8 34 ) X7 )  ( <= ( + Y7 68 ) Y8 )  ( <= ( + Y8 23 ) Y7 )  )
( or ( <= ( + X7 27 ) X9 )  ( <= ( + X9 14 ) X7 )  ( <= ( + Y7 68 ) Y9 )  ( <= ( + Y9 78 ) Y7 )  )
( or ( <= ( + X7 27 ) X10 )  ( <= ( + X10 54 ) X7 )  ( <= ( + Y7 68 ) Y10 )  ( <= ( + Y10 43 ) Y7 )  )
( or ( <= ( + X7 27 ) X11 )  ( <= ( + X11 45 ) X7 )  ( <= ( + Y7 68 ) Y11 )  ( <= ( + Y11 4 ) Y7 )  )
( or ( <= ( + X8 34 ) X9 )  ( <= ( + X9 14 ) X8 )  ( <= ( + Y8 23 ) Y9 )  ( <= ( + Y9 78 ) Y8 )  )
( or ( <= ( + X8 34 ) X10 )  ( <= ( + X10 54 ) X8 )  ( <= ( + Y8 23 ) Y10 )  ( <= ( + Y10 43 ) Y8 )  )
( or ( <= ( + X8 34 ) X11 )  ( <= ( + X11 45 ) X8 )  ( <= ( + Y8 23 ) Y11 )  ( <= ( + Y11 4 ) Y8 )  )
( or ( <= ( + X9 14 ) X10 )  ( <= ( + X10 54 ) X9 )  ( <= ( + Y9 78 ) Y10 )  ( <= ( + Y10 43 ) Y9 )  )
( or ( <= ( + X9 14 ) X11 )  ( <= ( + X11 45 ) X9 )  ( <= ( + Y9 78 ) Y11 )  ( <= ( + Y11 4 ) Y9 )  )
( or ( <= ( + X10 54 ) X11 )  ( <= ( + X11 45 ) X10 )  ( <= ( + Y10 43 ) Y11 )  ( <= ( + Y11 4 ) Y10 )  )
( >= X0 0)
( <= ( + X0 31) Z)
( >= Y0 0)
( <= ( + Y0 38 ) 173)
( >= X1 0)
( <= ( + X1 53) Z)
( >= Y1 0)
( <= ( + Y1 46 ) 173)
( >= X2 0)
( <= ( + X2 56) Z)
( >= Y2 0)
( <= ( + Y2 58 ) 173)
( >= X3 0)
( <= ( + X3 1) Z)
( >= Y3 0)
( <= ( + Y3 54 ) 173)
( >= X4 0)
( <= ( + X4 84) Z)
( >= Y4 0)
( <= ( + Y4 25 ) 173)
( >= X5 0)
( <= ( + X5 2) Z)
( >= Y5 0)
( <= ( + Y5 81 ) 173)
( >= X6 0)
( <= ( + X6 29) Z)
( >= Y6 0)
( <= ( + Y6 56 ) 173)
( >= X7 0)
( <= ( + X7 27) Z)
( >= Y7 0)
( <= ( + Y7 68 ) 173)
( >= X8 0)
( <= ( + X8 34) Z)
( >= Y8 0)
( <= ( + Y8 23 ) 173)
( >= X9 0)
( <= ( + X9 14) Z)
( >= Y9 0)
( <= ( + Y9 78 ) 173)
( >= X10 0)
( <= ( + X10 54) Z)
( >= Y10 0)
( <= ( + Y10 43 ) 173)
( >= X11 0)
( <= ( + X11 45) Z)
( >= Y11 0)
( <= ( + Y11 4 ) 173)
) )
(minimize Z)
(check-sat)
